Solver command line: ['C:\\Users\\Gabriela Escobar\\anaconda3\\envs\\pyomo_env\\Library\\bin\\glpsol.exe', '--write', 'C:\\Users\\GABRIE~1\\AppData\\Local\\Temp\\tmpcif0vvpn.glpk.raw', '--wglp', 'C:\\Users\\GABRIE~1\\AppData\\Local\\Temp\\tmpt03gt95o.glpk.glp', '--cpxlp', 'C:\\Users\\GABRIE~1\\AppData\\Local\\Temp\\tmp8_bhvb0g.pyomo.lp']

GLPSOL--GLPK LP/MIP Solver 5.0
Parameter(s) specified in the command line:
 --write C:\Users\GABRIE~1\AppData\Local\Temp\tmpcif0vvpn.glpk.raw --wglp
 C:\Users\GABRIE~1\AppData\Local\Temp\tmpt03gt95o.glpk.glp --cpxlp C:\Users\GABRIE~1\AppData\Local\Temp\tmp8_bhvb0g.pyomo.lp
Reading problem data from 'C:\Users\GABRIE~1\AppData\Local\Temp\tmp8_bhvb0g.pyomo.lp'...
21 rows, 21 columns, 401 non-zeros
512 lines were read
Writing problem data to 'C:\Users\GABRIE~1\AppData\Local\Temp\tmpt03gt95o.glpk.glp'...
487 lines were written
GLPK Simplex Optimizer 5.0
21 rows, 21 columns, 401 non-zeros
Preprocessing...
20 rows, 20 columns, 400 non-zeros
Scaling...
 A: min|aij| =  7.163e-03  max|aij| =  4.986e+00  ratio =  6.961e+02
GM: min|aij| =  5.092e-02  max|aij| =  1.964e+01  ratio =  3.857e+02
EQ: min|aij| =  2.593e-03  max|aij| =  1.000e+00  ratio =  3.857e+02
Constructing initial basis...
Size of triangular part is 20
*     0: obj =  -0.000000000e+00 inf =   0.000e+00 (20)
*     8: obj =   7.539150850e+01 inf =   0.000e+00 (0)
OPTIMAL LP SOLUTION FOUND
Time used:   0.0 secs
Memory used: 0.1 Mb (112916 bytes)
Writing basic solution to 'C:\Users\GABRIE~1\AppData\Local\Temp\tmpcif0vvpn.glpk.raw'...
51 lines were written

